db/data/24386315051185718455318449662257124973.z3.out
-------------------
2500.143033368
